c FILE: 2018.2.col
c SOURCE: SIGAA (UFRN)
c DESCRIPTION: Gerado a partir das turmas de 2018.2 para TI
p edge 111 253
e 1 24
e 1 36
e 1 38
e 1 61
e 1 81
e 24 10
e 24 36
e 24 38
e 24 81
e 36 10
e 36 61
e 36 81
e 38 10
e 38 61
e 38 81
e 61 10
e 61 81
e 81 10
e 2 60
e 2 106
e 60 5
e 60 21
e 60 27
e 60 30
e 60 70
e 60 74
e 60 106
e 106 4
e 106 5
e 106 21
e 106 23
e 106 27
e 106 30
e 106 70
e 106 74
e 106 88
e 3 59
e 59 25
e 59 73
e 59 82
e 6 14
e 6 16
e 6 19
e 6 34
e 6 43
e 6 112
e 6 115
e 14 34
e 14 43
e 14 112
e 14 115
e 16 34
e 16 43
e 16 112
e 16 115
e 19 34
e 19 43
e 19 112
e 19 115
e 34 112
e 7 45
e 7 58
e 7 85
e 45 9
e 45 13
e 45 17
e 45 71
e 45 77
e 45 85
e 45 87
e 45 107
e 58 9
e 58 13
e 58 17
e 58 71
e 58 77
e 58 87
e 58 107
e 85 9
e 85 11
e 85 13
e 85 17
e 85 18
e 85 71
e 85 77
e 85 87
e 85 94
e 85 101
e 85 107
e 8 37
e 8 42
e 8 50
e 8 51
e 8 83
e 8 102
e 37 26
e 37 28
e 37 29
e 37 50
e 37 51
e 37 83
e 42 26
e 42 28
e 42 50
e 42 51
e 42 83
e 50 26
e 50 28
e 50 29
e 50 83
e 50 102
e 51 26
e 51 28
e 51 29
e 51 83
e 51 102
e 83 26
e 83 28
e 83 29
e 83 102
e 102 26
e 102 28
e 11 57
e 57 18
e 57 94
e 57 101
e 12 20
e 12 52
e 12 109
e 20 52
e 52 109
e 31 65
e 65 39
e 32 54
e 32 64
e 32 84
e 32 95
e 32 99
e 32 111
e 54 40
e 54 84
e 54 95
e 54 99
e 54 111
e 64 40
e 64 84
e 64 95
e 64 99
e 64 111
e 84 40
e 95 40
e 99 40
e 111 40
e 33 53
e 33 63
e 33 79
e 33 89
e 33 91
e 33 92
e 33 116
e 53 35
e 53 41
e 53 44
e 53 89
e 53 91
e 53 92
e 53 116
e 63 35
e 63 41
e 63 44
e 63 89
e 63 91
e 63 92
e 63 116
e 79 35
e 79 41
e 79 44
e 79 89
e 79 91
e 79 92
e 79 116
e 89 35
e 89 41
e 89 44
e 91 35
e 91 41
e 91 44
e 92 35
e 92 41
e 92 44
e 116 35
e 116 41
e 116 44
e 46 66
e 46 72
e 46 80
e 46 86
e 46 90
e 46 104
e 46 105
e 66 47
e 66 49
e 66 56
e 72 47
e 72 49
e 72 56
e 80 47
e 80 49
e 80 56
e 86 47
e 86 49
e 86 56
e 90 47
e 90 49
e 90 56
e 104 47
e 104 49
e 104 56
e 105 47
e 105 49
e 105 56
e 48 68
e 48 69
e 48 76
e 48 78
e 48 93
e 48 100
e 48 103
e 68 55
e 68 113
e 68 114
e 69 55
e 69 113
e 69 114
e 76 55
e 76 113
e 76 114
e 78 55
e 78 113
e 78 114
e 93 55
e 93 113
e 93 114
e 100 55
e 100 113
e 100 114
e 103 55
e 103 113
e 103 114
e 62 96
e 62 97
e 62 98
e 62 117
